#######################################
### Exact MIP solver for the HHCRSP ###
#######################################
-- Instance file: new-instances/HHCRSP_10_3_79_0.8_C_C.txt
-- Max threads: 4
-- Time limit: 999999 seconds
-- Use initial solution: No
Trivial flow violations prevented generating 100 variables.
Model exported.
Version identifier: 20.1.0.0 | 2020-11-10 | 9bedb6d68
CPXPARAM_Threads                                 4
CPXPARAM_TimeLimit                               999999
Tried aggregator 1 time.
LP Presolve eliminated 132 rows and 59 columns.
Reduced LP has 236 rows, 226 columns, and 1296 nonzeros.
Presolve time = 0.00 sec. (0.47 ticks)
Symmetry aggregator did 163 additional substitutions.

Iteration log . . .
Iteration:     1   Dual objective     =             0.000000

Dual crossover.
  Dual:  Fixing 11 variables.
       10 DMoves:  Infeasibility  8.88178420e-16  Objective  3.97348667e+01
        0 DMoves:  Infeasibility  8.88178420e-16  Objective  3.97348667e+01
  Dual:  Pushed 1, exchanged 10.
  Primal:  Fixing 3 variables.
        2 PMoves:  Infeasibility  0.00000000e+00  Objective  3.97348667e+01
        0 PMoves:  Infeasibility  0.00000000e+00  Objective  3.97348667e+01
  Primal:  Pushed 1, exchanged 2.

Solution status from MIP model:
-- Processing time: 0.004 sec.
-- Memory used: 14.2314 MB
-- Best bound: inf
-- Obj value: 39.7349
-- Gap: inf%
-- Total distance: 119.205
-- Total tardiness: 0
-- Largest tardiness: 0
